Route 1: 0 70 31 57 14 26 58 40 36 66 48 0
Route 2: 0 33 76 11 100 37 56 0
Route 3: 0 25 86 22 75 62 92 88 52 0
Route 4: 0 41 65 2 5 78 59 83 80 0
Route 5: 0 30 43 64 91 16 44 0
Route 6: 0 27 72 55 51 29 53 13 0
Route 7: 0 24 96 85 28 97 4 77 39 7 0
Route 8: 0 95 89 93 45 9 49 23 67 63 34 0
Route 9: 0 94 74 32 79 8 3 1 6 47 42 0
Route 10: 0 99 50 10 54 68 81 82 60 61 98 0
Route 11: 0 15 46 73 38 84 69 71 0
Route 12: 0 21 18 19 17 35 87 0
Route 13: 0 12 90 20 0
